c description: Random 3-CNF over 25 variables and 107 clauses
c generator: CNFgen (0.9.2)
c copyright: (C) 2012-2022 Massimo Lauria <massimo.lauria@uniroma1.it>
c url: https://massimolauria.net/cnfgen
c command line: cnfgen --output CNF_4.28/25_bit_107_92.cnf randkcnf 3 25 107
c
p cnf 25 107
-1 11 17 0
-11 16 -17 0
6 -7 16 0
11 12 -22 0
-10 -13 -16 0
-5 6 20 0
2 -6 24 0
-8 -10 -20 0
-8 16 22 0
11 -14 15 0
-17 -20 21 0
2 9 -15 0
1 -17 23 0
4 -13 -22 0
6 -7 -16 0
10 -16 -19 0
-6 18 25 0
15 17 -23 0
7 -18 -25 0
3 8 25 0
-3 6 -9 0
9 -11 20 0
2 3 12 0
-3 -13 23 0
-3 17 22 0
5 -12 -16 0
-7 15 16 0
5 -16 22 0
8 -18 -22 0
9 -20 -22 0
3 10 23 0
3 -10 14 0
-11 -17 -21 0
11 18 -22 0
-12 14 -19 0
1 9 -15 0
11 17 -22 0
-14 19 20 0
23 24 -25 0
-13 15 -20 0
7 10 -16 0
6 11 17 0
-7 10 -21 0
7 -22 -25 0
-1 16 -23 0
-8 -12 25 0
-1 -15 19 0
-10 23 -25 0
1 2 -8 0
-3 10 22 0
5 22 23 0
6 -9 25 0
-6 8 14 0
-5 -10 -15 0
7 20 -22 0
1 -5 7 0
6 11 18 0
5 -12 23 0
16 21 24 0
-1 -20 -23 0
-7 -10 11 0
-1 9 -24 0
12 -23 -25 0
-5 8 19 0
5 -6 -14 0
-4 6 7 0
-9 -18 20 0
-7 -10 14 0
3 20 24 0
-13 -19 -20 0
10 14 -20 0
-3 6 -10 0
10 20 21 0
1 -5 11 0
-17 -21 25 0
12 13 -14 0
1 -13 -15 0
4 6 23 0
4 -7 15 0
-3 -16 -21 0
12 20 -24 0
8 9 14 0
-3 -7 22 0
4 9 24 0
1 -12 18 0
-19 21 25 0
-2 -20 22 0
13 15 22 0
-7 -16 -19 0
1 2 10 0
1 -5 -7 0
-2 -22 -23 0
16 -22 23 0
-2 9 -22 0
-5 -20 24 0
1 19 -24 0
-4 6 14 0
3 -17 21 0
-17 18 24 0
-3 -11 17 0
-2 -12 15 0
1 7 -21 0
-3 -8 12 0
10 20 25 0
-5 -7 23 0
-4 11 18 0
-2 17 22 0
